p cnf 12 50 
-7 5 -4 0
10 -5 -3 0
-4 10 -12 0
5 7 -2 0
-3 2 6 0
-9 8 -2 0
8 -5 -3 0
3 -12 4 0
12 7 -6 0
7 -12 8 0
-2 4 12 0
-9 1 -4 0
11 3 -1 0
-6 7 -12 0
3 11 -8 0
8 10 2 0
6 3 12 0
-1 5 -10 0
5 -8 -7 0
-10 4 6 0
-11 6 12 0
-10 -9 12 0
-3 -6 -5 0
-11 -8 9 0
4 -10 -12 0
-10 12 -7 0
4 12 -1 0
-3 11 -5 0
8 -5 2 0
7 9 -8 0
10 -5 1 0
12 -5 -1 0
6 4 1 0
5 -2 12 0
-9 4 2 0
-11 5 6 0
1 -3 -7 0
5 -8 10 0
-9 -12 8 0
4 7 -9 0
-10 3 8 0
-6 -12 11 0
12 7 11 0
-11 -5 4 0
6 -3 4 0
-11 -8 -5 0
-5 -2 -10 0
6 -9 7 0
10 7 -8 0
-10 9 -8 0
